qe/outputs/qe/qe_queries_wdomain/T=5,eliminate=[I_0,I_1,I_2,I_3,I_4,L_2,L_3,L_4,C].smt2
; benchmark generated from python API
(set-info :status unknown)
(declare-fun A_2 () Real)
(declare-fun B () Real)
(declare-fun S_3 () Real)
(declare-fun A_4 () Real)
(declare-fun S_4 () Real)
(declare-fun L_1 () Real)
(declare-fun A_3 () Real)
(declare-fun A_1 () Real)
(declare-fun S_2 () Real)
(declare-fun S_0 () Real)
(declare-fun L_0 () Real)
(declare-fun A_0 () Real)
(declare-fun S_1 () Real)
(assert
 (let (($x4519 (<= (+ S_4 (* (- 1.0) A_4) (* (- 1.0) S_3) (* (- 1.0) B) A_2) 0.0)))
 (let (($x1771 (<= (+ (* (- 1.0) S_2) (* (- 1.0) L_1) (* (- 1.0) B) A_1) 0.0)))
 (let (($x1433 (<= (+ A_0 (* (- 1.0) S_1) (* (- 1.0) B) (* (- 1.0) L_1)) 0.0)))
 (let (($x822 (not (<= B 0.0))))
 (let ((?x815 (* (- 1.0) A_2)))
 (let ((?x2008 (* 2.0 A_1)))
 (let ((?x834 (* (- 1.0) B)))
 (let ((?x2007 (* (- 2.0) L_1)))
 (let ((?x964 (* (- 1.0) A_0)))
 (let ((?x1411 (* (- 1.0) S_4)))
 (let (($x8475 (<= (+ A_3 ?x1411 ?x964 L_0 ?x2007 ?x834 ?x2008 ?x815) 0.0)))
 (let (($x3161 (<= (+ (* 3.0 A_2) (* (- 2.0) S_4) (* (- 3.0) L_1) L_0 ?x964) 0.0)))
 (let (($x2498 (<= (+ A_3 ?x1411 (* (- 1.0) L_1)) 0.0)))
 (let ((?x1995 (* (- 3.0) L_1)))
 (let ((?x2254 (+ ?x1411 (* (- 2.0) A_0) (* 2.0 L_0) ?x1995 (* (- 3.0) B) (* 3.0 A_1))))
 (let (($x2267 (<= ?x2254 0.0)))
 (let (($x32035 (<= (+ (* (- (/ 1.0 3.0)) S_4) (* (/ 1.0 3.0) A_0) (* (- (/ 1.0 3.0)) L_0)) (- 5.0))))
 (let (($x30177 (<= (+ (* (- 1.0) L_1) A_1 ?x1411) (- 10.0))))
 (let (($x8939 (<= (+ (* (- 1.0) L_1) A_1 ?x1411 (* (- 2.0) A_2) (* 2.0 A_3)) 0.0)))
 (let (($x3215 (<= (+ A_2 ?x1411 (* (- 1.0) L_1)) (- 5.0))))
 (let (($x5830 (<= (+ (* (/ 1.0 2.0) L_1) (* (- (/ 1.0 2.0)) A_1) (* (- (/ 1.0 2.0)) S_4) S_2) 0.0)))
 (let (($x4590 (<= (+ A_3 ?x1411 S_2 B ?x815) 0.0)))
 (let (($x61758 (or $x2498 $x3215 (<= (+ A_3 ?x1411 ?x2007 ?x2008 L_0 B ?x964 ?x815) 0.0) $x30177 (<= (+ A_0 (* (- 1.0) L_0) L_1 B ?x815) (- 10.0)) $x32035)))
 (let (($x3135 (<= (+ ?x1411 (* (- 1.0) L_1) ?x834 A_3) 0.0)))
 (let (($x28616 (<= (+ A_3 ?x1411 (* (- 1.0) L_1) A_1 B ?x815) (- 5.0))))
 (let ((?x824 (* (- 1.0) A_3)))
 (let ((?x1091 (+ A_2 ?x824)))
 (let (($x3648 (<= ?x1091 (- 5.0))))
 (let (($x34265 (or $x2498 $x3648 $x28616 $x30177 (<= (+ A_3 ?x1411 A_0 (* (- 1.0) L_0) B ?x815) (- 10.0)) $x32035)))
 (let (($x3715 (<= (+ (* (- (/ 2.0 3.0)) S_4) (* (- (/ 1.0 3.0)) A_0) (* (/ 1.0 3.0) L_0) S_2) 0.0)))
 (let (($x62147 (or $x2498 $x3648 $x28616 $x30177 (<= (+ A_0 (* (- 1.0) L_0) L_1 (* (- 1.0) A_1)) (- 5.0)))))
 (let (($x18807 (<= (+ A_2 ?x1411 ?x964 L_0 S_1 (* (- 1.0) L_1)) 0.0)))
 (let (($x11518 (<= (+ (* (- (/ 1.0 3.0)) S_4) (* (- (/ 2.0 3.0)) A_0) (* (/ 2.0 3.0) L_0) S_1) 0.0)))
 (let (($x61434 (or $x2498 (<= (+ A_3 ?x1411 ?x964 L_0 (* 2.0 S_1) B ?x815) 0.0) $x11518 $x18807)))
 (let ((?x2078 (* (- 3.0) A_1)))
 (let ((?x2175 (* 2.0 B)))
 (let ((?x2080 (* 3.0 L_1)))
 (let ((?x1573 (* (- 2.0) L_0)))
 (let ((?x1679 (* 2.0 A_0)))
 (let (($x1437 (<= (+ ?x964 S_0 B L_1) 0.0)))
 (let (($x35598 (or $x1437 (<= (+ L_1 (* (- 1.0) L_0)) 0.0) (<= (+ ?x824 S_4 ?x1679 ?x1573 ?x2080 ?x2175 ?x2078 A_2) 0.0))))
 (let (($x2296 (<= (+ ?x964 L_0 (* (- 1.0) L_1) (* (- 2.0) B) ?x2008 ?x815) 0.0)))
 (let (($x62009 (or $x2296 $x2498 (<= (+ A_2 ?x1411 ?x964 L_0 ?x2007 ?x834 A_1) 0.0))))
 (let ((?x806 (* (- 1.0) A_1)))
 (let ((?x1967 (* 2.0 L_1)))
 (let ((?x794 (* (- 1.0) L_0)))
 (let ((?x860 (* (- 1.0) A_4)))
 (let ((?x803 (* (- 1.0) L_1)))
 (let (($x735 (= ?x803 ?x794)))
 (let (($x33273 (or $x735 $x1437 (<= (+ ?x815 S_4 ?x860 A_0 ?x794 ?x1967 ?x806 A_3) 0.0))))
 (let (($x33266 (or $x735 $x1437 (<= (+ ?x815 S_4 ?x1679 ?x1573 ?x2175 ?x2080 (* (- 2.0) A_1)) 0.0))))
 (let ((?x2286 (* (- 4.0) A_1)))
 (let ((?x2285 (* 4.0 B)))
 (let ((?x4015 (* 4.0 L_1)))
 (let ((?x1681 (* (- 3.0) L_0)))
 (let ((?x1700 (* 3.0 A_0)))
 (let (($x63076 (or $x2498 (<= (+ ?x964 L_0 (* 2.0 S_1) L_1 B ?x815) 0.0) $x11518 $x18807)))
 (let (($x18401 (<= (+ ?x815 S_4 ?x860 A_0 (* (- 1.0) S_2) ?x794 L_1 ?x834 A_3) 0.0)))
 (let (($x1901 (<= (+ ?x803 A_1 (* (- 1.0) S_2)) 0.0)))
 (let (($x19050 (or $x1901 (<= (+ ?x815 S_3 A_0 (* (- 1.0) S_2) ?x794 L_1) 0.0))))
 (let ((?x16486 (* (/ 2.0 3.0) A_2)))
 (let ((?x9789 (* (- (/ 2.0 3.0)) B)))
 (let ((?x9792 (* (- (/ 1.0 3.0)) L_0)))
 (let ((?x1420 (* (- 1.0) S_3)))
 (let ((?x9790 (* (/ 1.0 3.0) A_0)))
 (let ((?x5502 (* (/ 2.0 3.0) S_4)))
 (let ((?x9747 (* (- (/ 2.0 3.0)) A_3)))
 (let ((?x2863 (* (/ 1.0 2.0) A_2)))
 (let ((?x5838 (* (- (/ 1.0 2.0)) B)))
 (let ((?x5145 (* (/ 1.0 2.0) A_1)))
 (let ((?x3809 (* (- (/ 1.0 2.0)) L_1)))
 (let ((?x3767 (* (/ 1.0 2.0) S_4)))
 (let ((?x5816 (* (- (/ 1.0 2.0)) A_3)))
 (let (($x2448 (<= (+ A_2 ?x1420 ?x803) 0.0)))
 (let (($x60510 (or $x2448 (<= (+ ?x5816 ?x3767 ?x3809 ?x5145 ?x1420 ?x5838 ?x2863) 0.0) (<= (+ ?x9747 ?x5502 ?x9790 ?x1420 ?x9792 ?x9789 ?x16486) 0.0))))
 (let (($x5475 (<= (+ (* (- (/ 2.0 3.0)) L_1) (* (/ 2.0 3.0) A_1) (* (/ 1.0 3.0) S_4) ?x1420) 0.0)))
 (let (($x63304 (or $x2448 $x5475 (<= (+ ?x3767 (* (/ 1.0 2.0) A_0) (* (- (/ 1.0 2.0)) L_0) ?x1420) 0.0))))
 (let ((?x1424 (* (- (/ 1.0 2.0)) L_0)))
 (let ((?x5147 (* (- (/ 1.0 2.0)) S_3)))
 (let ((?x1423 (* (/ 1.0 2.0) A_0)))
 (let (($x59988 (or $x2448 (<= (+ ?x824 S_4 A_1 ?x1420) 0.0) (<= (+ ?x824 S_4 ?x1423 ?x5147 ?x1424 L_1) 0.0))))
 (let ((?x16475 (* (/ 1.0 3.0) A_2)))
 (let ((?x9756 (* (- (/ 1.0 3.0)) B)))
 (let ((?x1455 (* (- 1.0) S_2)))
 (let ((?x9772 (* (- (/ 2.0 3.0)) L_0)))
 (let ((?x9763 (* (/ 2.0 3.0) A_0)))
 (let ((?x5492 (* (/ 1.0 3.0) S_4)))
 (let ((?x9801 (* (- (/ 1.0 3.0)) A_3)))
 (let (($x14990 (<= (+ (* (/ 1.0 4.0) S_4) (* (/ 3.0 4.0) A_0) (* (- (/ 3.0 4.0)) L_0) ?x1455) 0.0)))
 (let (($x16204 (or $x1901 (<= (+ ?x3767 (* (- (/ 1.0 2.0)) A_4) ?x1423 ?x1424 ?x1455 ?x5838 ?x2863) 0.0))))
 (let (($x14977 (or $x1901 (<= (+ ?x5816 ?x1423 (* (/ 1.0 2.0) S_3) ?x1424 ?x1455 ?x5838 ?x2863) 0.0))))
 (let (($x9757 (<= (+ ?x5492 ?x9763 ?x9772 (* (- (/ 1.0 3.0)) A_4) ?x1455 ?x9756 (* (/ 1.0 3.0) A_3)) 0.0)))
 (let (($x9749 (<= (+ ?x5502 ?x9790 ?x9792 (* (- (/ 2.0 3.0)) A_4) ?x1420 ?x9789 (* (/ 2.0 3.0) A_3)) 0.0)))
 (let (($x5835 (<= (+ ?x3809 ?x5145 ?x3767 (* (- (/ 1.0 2.0)) A_4) ?x1420 ?x5838 (* (/ 1.0 2.0) A_3)) 0.0)))
 (let (($x32042 (or $x735 $x1437 (<= (+ A_0 ?x794 S_2 ?x1967 ?x2175 (* (- 2.0) A_1)) 0.0))))
 (let (($x8442 (<= (+ ?x824 A_0 S_3 ?x794 ?x1967 B (* (- 2.0) A_1) A_2) 0.0)))
 (let (($x8038 (<= (+ S_4 A_0 ?x794 ?x860 ?x1967 B (* (- 2.0) A_1) A_2) 0.0)))
 (let (($x31758 (or $x735 $x1437 (<= (+ ?x1679 ?x1573 S_3 ?x2080 (* 3.0 B) ?x2078) 0.0))))
 (let (($x31742 (or $x735 $x1437 (<= (+ S_4 ?x1679 ?x1573 ?x860 ?x2080 ?x2175 ?x2078 A_3) 0.0))))
 (let (($x8655 (<= (+ A_0 ?x1420 ?x794) (- 10.0))))
 (let (($x2010 (<= (+ ?x2007 ?x2008 ?x1420 L_0 ?x964) 0.0)))
 (let (($x2139 (or $x1901 (<= (+ ?x815 S_4 ?x1679 (* (- 2.0) S_2) ?x1573 L_1) 0.0))))
 (let (($x41 (>= A_1 A_0)))
 (let (($x42 (>= A_2 A_1)))
 (let (($x43 (>= A_3 A_2)))
 (let (($x44 (>= A_4 A_3)))
 (and (<= ?x803 ?x794) $x44 $x43 $x42 $x41 (or $x1901 (<= (+ A_0 ?x1455 ?x794) (- 5.0))) $x2139 (or (<= (+ A_0 ?x794 L_1 B ?x806) (- 5.0)) $x735 $x1437) (or $x1901 (<= (+ ?x824 S_4 A_0 ?x1455 ?x794 L_1) 0.0)) (or $x735 $x1437 (<= (+ ?x824 S_4 A_0 ?x794 B ?x1967 ?x806) 0.0)) (or $x735 $x1437 (<= (+ S_1 L_1 B ?x806) 0.0)) (or (<= (+ ?x964 L_0 ?x1420 (* 2.0 S_1)) 0.0) $x2448) (or (<= (+ ?x964 L_0 ?x1420 ?x2007 (* (- 2.0) B) ?x2008) 0.0) $x2448) (or (not $x2010) $x2448 (<= (+ ?x803 A_1 ?x1420) (- 5.0))) (or $x2010 $x2448 $x8655) $x31742 $x31758 (or $x735 $x1437 $x8038) (or $x735 $x1437 $x8442) (or $x1901 (<= (+ ?x9763 ?x9772 (* (/ 1.0 3.0) S_3) ?x1455) 0.0)) $x32042 (or $x2448 $x5835 $x9749) (or $x1901 $x9757) $x14977 $x16204 (or $x1901 $x14990) (or $x1901 (<= (+ ?x9801 ?x5492 ?x9763 ?x9772 ?x1455 ?x9756 ?x16475) 0.0)) $x59988 $x63304 $x60510 $x19050 (or $x1901 $x18401) (or $x735 $x1437 (<= (+ ?x815 S_3 A_0 ?x794 ?x1967 B ?x806) 0.0)) $x63076 (or $x735 $x1437 (<= (+ S_4 ?x1700 ?x1681 ?x4015 ?x2285 ?x2286) 0.0)) $x33266 $x33273 $x62009 (or $x3135 $x8939 $x30177 (<= (+ A_2 B ?x824) (- 5.0)) $x32035) $x35598 (or $x2267 $x3135 $x3161 $x8475) $x61434 $x62147 (or $x2498 $x3715 $x4590) $x34265 (or $x2498 $x3215 $x8475 $x30177 $x32035) (or $x3135 $x3215 $x8939 $x30177 $x32035) $x61758 (or $x2498 $x4590 $x5830) (or $x2498 $x3215 $x8939 $x30177 $x32035) (or $x2267 $x2498 $x3161 $x8475) $x822 (<= (+ ?x1420 S_2) 0.0) (<= (+ S_2 L_1 ?x815) 0.0) $x1433 (<= (+ S_1 L_1 ?x806) 0.0) (<= (+ ?x1455 S_1) 0.0) (<= (+ (* (- 1.0) S_1) S_0) 0.0) (<= (+ ?x964 L_0 S_0) 0.0) $x1771 (<= (+ S_4 ?x860 L_1) 0.0) (<= (+ ?x824 S_3 L_1) 0.0) (<= (+ ?x1411 S_3) 0.0) $x4519))))))))))))))))))))))))))))))))))))))))))))))))))))))))))))))))))))))))))))))))))))))))))))))))))))))))))))
(check-sat)
